
Gurobi 9.5.1 (linux64) logging started Sat 13 Aug 2022 11:08:47 PM MST

Set parameter LogFile to value "/home/local/ASUAD/kmajd1/NNRepLayer_v2/demos/walking_example/dynamic_constraint/repair_net/logs/opt_log_8_13_2022_23_3_8.log"
Set parameter SolFiles to value "/home/local/ASUAD/kmajd1/NNRepLayer_v2/demos/walking_example/dynamic_constraint/repair_net/sol/sol__8_13_2022_23_3_8/solution"
Gurobi Optimizer version 9.5.1 build v9.5.1rc2 (linux64)
Thread count: 48 physical cores, 96 logical processors, using up to 30 threads
Optimize a model with 221226 rows, 151566 columns and 12779022 nonzeros
Model fingerprint: 0xd3bd6645
Model has 270 quadratic objective terms
Variable types: 82446 continuous, 69120 integer (69120 binary)
Coefficient statistics:
  Matrix range     [2e-05, 2e+03]
  Objective range  [2e-03, 1e+00]
  QObjective range [7e-02, 7e-02]
  Bounds range     [7e-06, 9e+03]
  RHS range        [3e-05, 2e+03]

Concurrent MIP optimizer: 3 concurrent instances (10 threads per instance)

Presolve removed 540 rows and 0 columns (presolve time = 6s) ...
Presolve removed 540 rows and 0 columns (presolve time = 10s) ...
Presolve removed 540 rows and 0 columns (presolve time = 15s) ...
Presolve removed 540 rows and 0 columns (presolve time = 20s) ...
Presolve removed 540 rows and 0 columns (presolve time = 25s) ...
Presolve removed 540 rows and 0 columns (presolve time = 30s) ...
Presolve removed 540 rows and 0 columns (presolve time = 35s) ...
Presolve removed 540 rows and 0 columns (presolve time = 40s) ...
Presolve removed 540 rows and 0 columns (presolve time = 45s) ...
Presolve removed 540 rows and 0 columns (presolve time = 50s) ...
Presolve removed 540 rows and 0 columns (presolve time = 56s) ...
Presolve removed 540 rows and 0 columns (presolve time = 60s) ...
Presolve removed 540 rows and 0 columns (presolve time = 65s) ...
Presolve removed 540 rows and 0 columns (presolve time = 70s) ...
Presolve removed 540 rows and 0 columns (presolve time = 75s) ...
Presolve removed 540 rows and 0 columns (presolve time = 80s) ...
Presolve removed 540 rows and 0 columns (presolve time = 85s) ...
Presolve removed 540 rows and 0 columns (presolve time = 90s) ...
Presolve removed 540 rows and 0 columns (presolve time = 95s) ...
Presolve removed 540 rows and 0 columns (presolve time = 101s) ...
Presolve added 7560 rows and 8100 columns
Presolve time: 101.02s
Presolved: 228786 rows, 159666 columns, 12280332 nonzeros
Presolved model has 270 quadratic objective terms
Variable types: 90546 continuous, 69120 integer (69120 binary)
Root relaxation presolve removed 69120 rows and 69120 columns (presolve time = 5s) ...
Root relaxation presolve removed 69120 rows and 69120 columns (presolve time = 10s) ...
Root relaxation presolve removed 69120 rows and 69120 columns (presolve time = 15s) ...
Root relaxation presolve removed 69120 rows and 69120 columns (presolve time = 20s) ...
Root relaxation presolve removed 69120 rows and 69120 columns (presolve time = 25s) ...
Root relaxation presolve removed 69120 rows and 69120 columns (presolve time = 30s) ...
Root relaxation presolve removed 69120 rows and 69120 columns (presolve time = 35s) ...
Root relaxation presolve removed 69120 rows and 69120 columns (presolve time = 40s) ...
Root relaxation presolve removed 69120 rows and 69120 columns (presolve time = 45s) ...
Root relaxation presolve removed 69120 rows and 69120 columns (presolve time = 50s) ...
Root relaxation presolve removed 69120 rows and 69120 columns (presolve time = 55s) ...
Root relaxation presolve removed 69120 rows and 69120 columns (presolve time = 60s) ...
Root relaxation presolve removed 69120 rows and 69120 columns (presolve time = 65s) ...
Root relaxation presolve removed 69120 rows and 69120 columns (presolve time = 70s) ...
Root relaxation presolve removed 69120 rows and 69120 columns (presolve time = 75s) ...
Root relaxation presolve removed 69120 rows and 69120 columns (presolve time = 80s) ...
Root relaxation presolve removed 69120 rows and 69120 columns (presolve time = 85s) ...
Root relaxation presolve removed 69120 rows and 69120 columns (presolve time = 90s) ...
Root relaxation presolve removed 69120 rows and 69120 columns (presolve time = 95s) ...
Root relaxation presolve removed 69120 rows and 69120 columns
Root relaxation presolved: 159666 rows, 90546 columns, 12077022 nonzeros
Root relaxation presolved model has 270 quadratic objective terms


Root simplex log...

Iteration    Objective       Primal Inf.    Dual Inf.      Time
       0    2.1888187e+01   0.000000e+00   0.000000e+00    205s
    2810    2.1888187e+01   2.107569e+04   0.000000e+00    205s
   32306    2.1888187e+01   3.398866e+03   0.000000e+00    211s
   43106    2.1888187e+01   2.680643e+03   0.000000e+00    215s
   57410    2.1888187e+01   2.241962e+03   0.000000e+00    221s
   65253    2.1888187e+01   1.949856e+03   0.000000e+00    225s
   74671    2.1888187e+01   1.715068e+03   0.000000e+00    231s
   83786    2.1888187e+01   1.380943e+03   0.000000e+00    236s
   91160    2.1888187e+01   1.215000e+03   0.000000e+00    240s
   99542    2.1888187e+01   6.871331e+02   0.000000e+00    246s
  107082    2.1888187e+01   3.047884e+02   0.000000e+00    251s
  113912    2.1888187e+01   6.684861e+01   0.000000e+00    255s
  120419    2.1888187e+01   0.000000e+00   0.000000e+00    260s
  120419    2.1888187e+01   0.000000e+00   0.000000e+00    261s

Root relaxation: objective 2.188819e+01, 120419 iterations, 154.04 seconds (599.91 work units)

    Nodes    |    Current Node    |     Objective Bounds      |     Work
 Expl Unexpl |  Obj  Depth IntInf | Incumbent    BestBd   Gap | It/Node Time

     0     0      -    -    -              -   21.88819      -     -  299s
     0     0      -    -    -              -   21.88819      -     -  327s
     0     2      -    -    -              -   21.88819      -     -  878s
     1     4      -    -    -              -   21.88819      -     -  883s
     3     8      -    -    -              -   21.88819      -     -  887s
     7    16      -    -    -              -   21.88819      -     -  892s
    15    26      -    -    -              -   21.88819      -     -  898s
    25    36      -    -    -              -   21.88819      -     -  949s
    35    46      -    -    -              -   21.88819      -     -  954s
    45    56      -    -    -              -   21.88819      -     -  958s
    55    66      -    -    -              -   21.88819      -     - 1021s
    65    82      -    -    -              -   21.88819      -     - 1030s
    81   101      -    -    -              -   21.88819      -     - 1039s
   100   119      -    -    -              -   21.88819      -     - 1047s
   118   139      -    -    -              -   21.88819      -     - 1055s
   138   151      -    -    -              -   21.88819      -     - 1064s
   150   170      -    -    -              -   21.88819      -     - 1074s
   169   192      -    -    -              -   21.88819      -     - 1086s
   191   203      -    -    -              -   21.88819      -     - 1095s
   202   223      -    -    -              -   21.88819      -     - 1108s
   222   245      -    -    -              -   21.88819      -     - 1120s
   244   268      -    -    -              -   21.88819      -     - 1139s
   267   297      -    -    -              -   21.88819      -     - 1215s
   296   318      -    -    -              -   21.88819      -     - 1228s
   317   344      -    -    -              -   21.88819      -     - 1243s
   343   367      -    -    -              -   21.88819      -     - 1258s
   366   386      -    -    -              -   21.88819      -     - 1286s
   385   406      -    -    -              -   21.88819      -     - 1363s
   405   435      -    -    -              -   21.88819      -     - 1388s
   434   461      -    -    -              -   21.88819      -     - 1402s
   460   489      -    -    -              -   21.88819      -     - 1419s
   488   523      -    -    -              -   21.88819      -     - 1442s
   522   559      -    -    -              -   21.88819      -     - 1466s
   558   588      -    -    -              -   21.88819      -     - 1492s
   587   634      -    -    -              -   21.88819      -     - 1577s
   633   715      -    -    -              -   21.88819      -     - 1632s
   714   769      -    -    -              -   21.88819      -     - 1672s
   768   822      -    -    -              -   21.88819      -     - 1709s
   821   864      -    -    -              -   21.88819      -     - 1802s
   863   937      -    -    -              -   21.88819      -     - 1839s
   936  1019      -    -    -              -   21.88819      -     - 1902s
  1018  1112      -    -    -              -   21.88819      -     - 1972s
  1111  1203      -    -    -              -   21.88819      -     - 2033s
  1202  1313      -    -    -              -   21.88819      -     - 2096s
  1312  1408      -    -    -              -   21.88819      -     - 2171s
  1407  1533      -    -    -              -   21.88819      -     - 2266s
  1532  1632      -    -    -              -   21.88819      -     - 2331s
  1631  1738      -    -    -              -   21.88819      -     - 2420s
  1737  1787      -    -    -              -   21.88819      -     - 2569s
  1786  2032      -    -    -              -   21.88819      -     - 2750s
  2031  2226      -    -    -              -   21.88819      -     - 2889s
  2225  2363      -    -    -              -   21.88819      -     - 2994s
  2362  2500      -    -    -              -   21.88819      -     - 3100s
  2499  2604      -    -    -              -   21.88819      -     - 3185s
  2603  2743      -    -    -              -   21.88819      -     - 3321s
  2742  2934      -    -    -              -   21.88819      -     - 3460s
  2933  3120      -    -    -              -   21.88819      -     - 3604s
  3119  3366      -    -    -              -   21.88819      -     - 3768s
  3365  3549      -    -    -              -   21.88819      -     - 3940s
  3548  3715      -    -    -              -   21.88819      -     - 4091s
  3714  3930      -    -    -              -   21.88819      -     - 4265s
  3929  4338      -    -    -              -   21.88819      -     - 4528s
  4337  4664      -    -    -              -   21.88819      -     - 4763s
  4663  5057      -    -    -              -   21.88819      -     - 4849s
  5056  5507      -    -    -              -   21.88819      -     - 4948s
  5506  5966      -    -    -              -   21.88819      -     - 5053s
  5965  6146      -    -    -              -   21.88819      -     - 5288s
  6145  6603      -    -    -              -   21.88819      -     - 5392s
  6602  6939      -    -    -              -   21.88819      -     - 6286s
  6938  7341      -    -    -              -   21.88819      -     - 6439s
  7340  7810      -    -    -              -   21.88819      -     - 6599s
  7809  8226      -    -    -              -   21.88819      -     - 6729s
  8226  8227      -    -    -              -   21.88819      -     - 6839s
  8227  8228      -    -    -              -   21.88819      -     - 6842s
  8228  8228      -    -    -              -   21.88819      -     - 7059s
  8230  8230      -    -    -              -   21.88819      -     - 9450s
  8231  8233      -    -    -              -   21.88819      -     - 12478s
  8233  8237      -    -    -              -   21.88819      -     - 12485s
  8237  8243      -    -    -              -   21.88819      -     - 12491s
  8245  8251      -    -    -              -   21.88819      -     - 12498s
  8255  8257      -    -    -              -   21.88819      -     - 12503s
  8265  8264      -    -    -              -   21.88819      -     - 12507s
  8275  8271      -    -    -              -   21.88819      -     - 12563s
  8285  8277      -    -    -              -   21.88819      -     - 12568s
  8295  8284      -    -    -              -   21.88819      -     - 12573s
  8305  8291      -    -    -              -   21.88819      -     - 12578s
  8315  8301      -    -    -              -   21.88819      -     - 12586s
  8329  8311      -    -    -              -   21.88819      -     - 12593s
  8343  8316      -    -    -              -   21.88819      -     - 12600s
  8353  8323      -    -    -              -   21.88819      -     - 12607s
  8363  8336      -    -    -              -   21.88819      -     - 12614s
  8380  8348      -    -    -              -   21.88819      -     - 12622s
  8397  8360      -    -    -              -   21.88819      -     - 12629s
  8415  8376      -    -    -              -   21.88819      -     - 12694s
  8437  8385      -    -    -              -   21.88819      -     - 12708s
  8453  8409      -    -    -              -   21.88819      -     - 12721s
  8483  8431      -    -    -              -   21.88819      -     - 12734s
  8515  8453      -    -    -              -   21.88819      -     - 12746s
  8547  8472      -    -    -              -   21.88819      -     - 12759s
  8577  8491      -    -    -              -   21.88819      -     - 12771s
  8606  8514      -    -    -              -   21.88819      -     - 12787s
  8639  8540      -    -    -              -   21.88819      -     - 12838s
  8676  8567      -    -    -              -   21.88819      -     - 12856s
  8715  8599      -    -    -              -   21.88819      -     - 12875s
  8760  8632      -    -    -              -   21.88819      -     - 12895s
  8808  8665      -    -    -              -   21.88819      -     - 12915s
  8857  8693      -    -    -              -   21.88819      -     - 12934s
  8901  8723      -    -    -              -   21.88819      -     - 12954s
  8946  8761      -    -    -              -   21.88819      -     - 12977s
  8999  8798      -    -    -              -   21.88819      -     - 12999s
  9054  8832      -    -    -              -   21.88819      -     - 13022s
  9106  8863      -    -    -              -   21.88819      -     - 13043s
  9154  8895      -    -    -              -   21.88819      -     - 13066s
  9202  8922      -    -    -              -   21.88819      -     - 13090s
  9245  8941      -    -    -              -   21.88819      -     - 13162s
  9279  8976      -    -    -              -   21.88819      -     - 13187s
  9325  9007      -    -    -              -   21.88819      -     - 13213s
  9371  9033      -    -    -              -   21.88819      -     - 13237s
  9413  9073      -    -    -              -   21.88819      -     - 13265s
  9467  9097      -    -    -              -   21.88819      -     - 13338s
  9509  9137      -    -    -              -   21.88819      -     - 13372s
  9563  9189      -    -    -              -   21.88819      -     - 13410s
  9633  9223      -    -    -              -   21.88819      -     - 13443s
  9690  9258      -    -    -              -   21.88819      -     - 13474s
  9744  9323      -    -    -              -   21.88819      -     - 13524s
  9827  9361      -    -    -              -   21.88819      -     - 13563s
  9893  9390      -    -    -              -   21.88819      -     - 13653s
  9944  9434      -    -    -              -   21.88819      -     - 13705s
 10005  9492      -    -    -              -   21.88819      -     - 13754s
 10083  9539      -    -    -              -   21.88819      -     - 13799s
 10156  9608      -    -    -              -   21.88819      -     - 13855s
 10249  9622      -    -    -              -   21.88819      -     - 13958s
 10294  9696      -    -    -              -   21.88819      -     - 14010s
 10383  9735      -    -    -              -   21.88819      -     - 14060s
 10452  9788      -    -    -              -   21.88819      -     - 14113s
 10528  9824      -    -    -              -   21.88819      -     - 14229s
 10589  9928      -    -    -              -   21.88819      -     - 14309s
 10714 10007      -    -    -              -   21.88819      -     - 14382s
 10834 10095      -    -    -              -   21.88819      -     - 14475s
 10962 10155      -    -    -              -   21.88819      -     - 14583s
 11065 10234      -    -    -              -   21.88819      -     - 14669s
 11178 10337      -    -    -              -   21.88819      -     - 14769s
 11317 10291      -    -    -              -   21.88819      -     - 14770s
 11319 10403      -    -    -              -   21.88819      -     - 14902s
 11432 10499      -    -    -              -   21.88819      -     - 14997s
 11566 10632      -    -    -              -   21.88819      -     - 15096s
 11743 10757      -    -    -              -   21.88819      -     - 15223s
 11927 10895      -    -    -              -   21.88819      -     - 15372s
 12127 11023      -    -    -              -   21.88819      -     - 15531s
 12321 11194      -    -    -              -   21.88819      -     - 15688s
 12557 11375      -    -    -              -   21.88819      -     - 15842s
 12817 11487      -    -    -              -   21.88819      -     - 15991s
 13015 11664      -    -    -              -   21.88819      -     - 16150s
 13258 11877      -    -    -              -   21.88819      -     - 16334s
 13552 12099      -    -    -              -   21.88819      -     - 16535s
 13872 12236      -    -    -              -   21.88819      -     - 16742s
 14116 12513      -    -    -              -   21.88819      -     - 16821s
 14474 12757      -    -    -              -   21.88819      -     - 16969s
 14838 13010      -    -    -              -   21.88819      -     - 17040s
 15212 13252      -    -    -              -   21.88819      -     - 17126s
 15579 13504      -    -    -              -   21.88819      -     - 17216s
 15953 13604      -    -    -              -   21.88819      -     - 17278s
 16178 13833      -    -    -              -   21.88819      -     - 17354s
 16482 14186      -    -    -              -   21.88819      -     - 17573s
 16936 14312      -    -    -              -   21.88819      -     - 17687s
 17213 14339      -    -    -              -   21.88819      -     - 17795s
 17333 14755      -    -    -              -   21.88819      -     - 17924s
 17789 14686      -    -    -              -   21.88819      -     - 18044s
 17872 15176      -    -    -              -   21.88819      -     - 18334s
 18389 15205      -    -    -              -   21.88819      -     - 18555s
 18591 15532      -    -    -              -   21.88819      -     - 20282s
 18985 15820      -    -    -              -   21.88819      -     - 21144s
 19404 15857      -    -    -              -   21.88819      -     - 21532s
 19581 16033      -    -    -              -   21.88819      -     - 22648s
 19816 16459      -    -    -              -   21.88819      -     - 25029s
 20320 16752      -    -    -              -   21.88819      -     - 28299s
 20781 17119      -    -    -              -   21.88819      -     - 28991s
 21302 17595      -    -    -              -   21.88819      -     - 29827s
 21952 18049      -    -    -              -   21.88819      -     - 30379s
 22622 18491      -    -    -              -   21.88819      -     - 30846s
 23288 18882      -    -    -              -   21.88819      -     - 32647s
 23901 19302      -    -    -              -   21.88819      -     - 33259s
 24525 19766      -    -    -              -   21.88819      -     - 34985s
 25197 20262      -    -    -              -   21.88819      -     - 35397s
 25917 20766      -    -    -              -   21.88819      -     - 35779s
 26403 20604      -    -    -              -   21.88819      -     - 35780s
 26661 21273      -    -    -              -   21.88819      -     - 36499s
 27422 21767      -    -    -              -   21.88819      -     - 36948s
 28170 22277      -    -    -              -   21.88819      -     - 37313s
 28931 22763      -    -    -              -   21.88819      -     - 37562s
 29671 23228      -    -    -              -   21.88819      -     - 37878s
 30382 23794      -    -    -              -   21.88819      -     - 38116s
 31185 24336      -    -    -              -   21.88819      -     - 38323s
 31995 24819      -    -    -              -   21.88819      -     - 38782s
 32748 25246      -    -    -              -   21.88819      -     - 39286s
 33428 25208      -    -    -              -   21.88819      -     - 44157s
 33447 25804      -    -    -              -   21.88819      -     - 44510s
 34043 26337      -    -    -              -   21.88819      -     - 44809s
 34576 26887      -    -    -              -   21.88819      -     - 45204s
 34981 26887      -    -    -              -   21.88819      -     - 45205s
 35126 27405      -    -    -              -   21.88819      -     - 45514s
 35644 27925      -    -    -              -   21.88819      -     - 45798s
 36164 28519      -    -    -              -   21.88819      -     - 46147s
 36758 29119      -    -    -              -   21.88819      -     - 46367s
 37358 29787      -    -    -              -   21.88819      -     - 46719s
 38026 30445      -    -    -              -   21.88819      -     - 46972s
 38684 31104      -    -    -              -   21.88819      -     - 47188s
 39343 31766      -    -    -              -   21.88819      -     - 47516s
 40005 32390      -    -    -              -   21.88819      -     - 47783s
 40629 33054      -    -    -              -   21.88819      -     - 48153s
 41293 33670      -    -    -              -   21.88819      -     - 48428s
 41909 34407      -    -    -              -   21.88819      -     - 48720s
 42646 35089      -    -    -              -   21.88819      -     - 48941s
 43328 35756      -    -    -              -   21.88819      -     - 49209s
 43995 36264      -    -    -              -   21.88819      -     - 49687s
 44503 36768      -    -    -              -   21.88819      -     - 50171s
 45007 37319      -    -    -              -   21.88819      -     - 50764s
 45558 37843      -    -    -              -   21.88819      -     - 51215s
 46082 38427      -    -    -              -   21.88819      -     - 51749s
 46666 39009      -    -    -              -   21.88819      -     - 52384s
 47248 39639      -    -    -              -   21.88819      -     - 52759s
 47878 40294      -    -    -              -   21.88819      -     - 53242s
 48533 40829      -    -    -              -   21.88819      -     - 53556s
 49068 41504      -    -    -              -   21.88819      -     - 54047s
 49743 42015      -    -    -              -   21.88819      -     - 54825s
 50254 42458      -    -    -              -   21.88819      -     - 55139s
 50697 42940      -    -    -              -   21.88819      -     - 55767s
 51179 43488      -    -    -              -   21.88819      -     - 56112s
 51727 44019      -    -    -              -   21.88819      -     - 56466s
 52260 44735      -    -    -              -   21.88819      -     - 56950s
 52976 45311      -    -    -              -   21.88819      -     - 57400s
 53552 45870      -    -    -              -   21.88819      -     - 57773s
 54111 46400      -    -    -              -   21.88819      -     - 58374s
 54643 46828      -    -    -              -   21.88819      -     - 58766s
 55073 47401      -    -    -              -   21.88819      -     - 59164s
 55646 47926      -    -    -              -   21.88819      -     - 59844s
 56171 48589      -    -    -              -   21.88819      -     - 60414s
 56834 49148      -    -    -              -   21.88819      -     - 60770s
 57393 49746      -    -    -              -   21.88819      -     - 61253s
 57993 50198      -    -    -              -   21.88819      -     - 64892s
 58445 50815      -    -    -              -   21.88819      -     - 65367s
 59062 51429      -    -    -              -   21.88819      -     - 67024s
 59676 52011      -    -    -              -   21.88819      -     - 67995s
 60258 52524      -    -    -              -   21.88819      -     - 69054s
 60771 53048      -    -    -              -   21.88819      -     - 69465s
 61297 53460      -    -    -              -   21.88819      -     - 71270s
 61711 53866      -    -    -              -   21.88819      -     - 73667s
 62117 54185      -    -    -              -   21.88819      -     - 74586s
 62436 54559      -    -    -              -   21.88819      -     - 75383s
 62810 54983      -    -    -              -   21.88819      -     - 76491s
 63234 55381      -    -    -              -   21.88819      -     - 77246s
 63632 55765      -    -    -              -   21.88819      -     - 79049s
 64016 56269      -    -    -              -   21.88819      -     - 79525s
 64522 56857      -    -    -              -   21.88819      -     - 80176s
 65134 57448      -    -    -              -   21.88819      -     - 80843s
 65729 57901      -    -    -              -   21.88819      -     - 81521s
 66182 58435      -    -    -              -   21.88819      -     - 82307s
 66716 58926      -    -    -              -   21.88819      -     - 83136s
 67209 59495      -    -    -              -   21.88819      -     - 85528s
 67778 59986      -    -    -              -   21.88819      -     - 86400s

Instance 0 was solved

Explored 68269 nodes (127803169 simplex iterations) in 86406.81 seconds (211234.61 work units)
Thread count was 10 (of 96 available processors)

Solution count 0

Time limit reached
Best objective -, best bound 2.188818723632e+01, gap -
